
%FILE DATA:	Soccer Computational Problem for MiniZinc Models	%
%AUTHOR:	Jack Wall	%
%CONTACT:  	116397063@umail.ucc.ie			%
%LAST UPDATE:	03/03/2020, 12:29:48						%
%DESCRIPTION: 	80 games played with 10 games left				%


n=10; %number of teams

%Games to play
games=[|2,9|9,1|3,5|3,6|4,10|7,10|5,1|8,6|4,9|4,2|];

%Initial points
iPoints=[24,24,18,22,23,21,16,30,20,19];

%POSITION CONSTRAINTS
% [|teamID, operator, position|...]
% operators index:
%  1 for =  operator
%  2 for >  operator
%  3 for >= operator
%  4 for <  operator
%  5 for <= operator
positionConstraints=[|8,4,2|4,3,2|1,2,2|5,5,4|];